
Gurobi 9.5.2 (mac64[arm]) logging started Fri Jan  6 20:38:21 2023

Set parameter LogFile to value "./ccga_results/2023-01-06 20-38-20-668/MSP_TimeStampConvert_gurobi_log.txt"

Gurobi 9.5.2 (mac64[arm]) logging started Fri Jan  6 20:38:22 2023

Set parameter LogFile to value "./ccga_results/2023-01-06 20-38-20-668/MSP_TimeStampConvert_gurobi_log.txt"
Set parameter TimeLimit to value 180
Gurobi Optimizer version 9.5.2 build v9.5.2rc0 (mac64[arm])
Thread count: 8 physical cores, 8 logical processors, using up to 8 threads
Optimize a model with 720 rows, 577 columns and 1722 nonzeros
Model fingerprint: 0x79bb55a8
Variable types: 145 continuous, 432 integer (432 binary)
Coefficient statistics:
  Matrix range     [1e+00, 1e+00]
  Objective range  [1e+00, 1e+00]
  Bounds range     [5e+01, 5e+01]
  RHS range        [1e+00, 1e+00]
Found heuristic solution: objective -0.0000000
Found heuristic solution: objective 50.0000000
Presolve removed 720 rows and 577 columns
Presolve time: 0.00s
Presolve: All rows and columns removed

Explored 0 nodes (0 simplex iterations) in 0.00 seconds (0.00 work units)
Thread count was 1 (of 8 available processors)

Solution count 2: 50 -0 

Optimal solution found (tolerance 1.00e-03)
Best objective 5.000000000000e+01, best bound 5.000000000000e+01, gap 0.0000%

User-callback calls 1772, time in user-callback 0.00 sec
Gurobi Optimizer version 9.5.2 build v9.5.2rc0 (mac64[arm])
Thread count: 8 physical cores, 8 logical processors, using up to 8 threads
Optimize a model with 3417 rows, 1729 columns and 14064 nonzeros
Model fingerprint: 0x3a469525
Variable types: 1225 continuous, 504 integer (504 binary)
Coefficient statistics:
  Matrix range     [3e-03, 8e+02]
  Objective range  [1e+00, 1e+00]
  Bounds range     [5e+01, 5e+01]
  RHS range        [1e+00, 1e+08]

MIP start from previous solve did not produce a new incumbent solution

Presolve removed 1039 rows and 710 columns
Presolve time: 0.01s
Presolved: 2378 rows, 1019 columns, 9159 nonzeros
Variable types: 529 continuous, 490 integer (490 binary)
Found heuristic solution: objective 34.7117052
Found heuristic solution: objective 50.0000000

Explored 0 nodes (0 simplex iterations) in 0.03 seconds (0.04 work units)
Thread count was 8 (of 8 available processors)

Solution count 2: 50 34.7117 

Optimal solution found (tolerance 1.00e-03)
Best objective 5.000000000000e+01, best bound 5.000000000000e+01, gap 0.0000%

User-callback calls 311, time in user-callback 0.00 sec
Gurobi Optimizer version 9.5.2 build v9.5.2rc0 (mac64[arm])
Thread count: 8 physical cores, 8 logical processors, using up to 8 threads
Optimize a model with 6114 rows, 2881 columns and 26406 nonzeros
Model fingerprint: 0xe003b04c
Variable types: 2305 continuous, 576 integer (576 binary)
Coefficient statistics:
  Matrix range     [3e-03, 8e+02]
  Objective range  [1e+00, 1e+00]
  Bounds range     [5e+01, 5e+01]
  RHS range        [1e+00, 1e+08]

MIP start from previous solve did not produce a new incumbent solution

Presolve removed 2052 rows and 1408 columns
Presolve time: 0.03s
Presolved: 4062 rows, 1473 columns, 16674 nonzeros
Variable types: 913 continuous, 560 integer (560 binary)
Found heuristic solution: objective 20.4715696
Found heuristic solution: objective 34.7117052

Root relaxation: objective 5.000000e+01, 1494 iterations, 0.02 seconds (0.03 work units)

    Nodes    |    Current Node    |     Objective Bounds      |     Work
 Expl Unexpl |  Obj  Depth IntInf | Incumbent    BestBd   Gap | It/Node Time

     0     0   50.00000    0    3   34.71171   50.00000  44.0%     -    0s
H    0     0                      39.5702818   50.00000  26.4%     -    0s
*    0     0               0      50.0000000   50.00000  0.00%     -    0s

Cutting planes:
  MIR: 2

Explored 1 nodes (2566 simplex iterations) in 0.17 seconds (0.22 work units)
Thread count was 8 (of 8 available processors)

Solution count 4: 50 39.5703 34.7117 20.4716 

Optimal solution found (tolerance 1.00e-03)
Best objective 5.000000000000e+01, best bound 5.000000000000e+01, gap 0.0000%

User-callback calls 390, time in user-callback 0.00 sec
Gurobi Optimizer version 9.5.2 build v9.5.2rc0 (mac64[arm])
Thread count: 8 physical cores, 8 logical processors, using up to 8 threads
Optimize a model with 8811 rows, 4033 columns and 38748 nonzeros
Model fingerprint: 0x5a31fc52
Variable types: 3385 continuous, 648 integer (648 binary)
Coefficient statistics:
  Matrix range     [3e-03, 8e+02]
  Objective range  [1e+00, 1e+00]
  Bounds range     [5e+01, 5e+01]
  RHS range        [1e+00, 1e+08]

MIP start from previous solve did not produce a new incumbent solution

Presolve removed 3065 rows and 2106 columns
Presolve time: 0.04s
Presolved: 5746 rows, 1927 columns, 24189 nonzeros
Variable types: 1297 continuous, 630 integer (630 binary)
Found heuristic solution: objective 20.4715696
Found heuristic solution: objective 25.1546780
Found heuristic solution: objective 28.1552056

Root relaxation: objective 5.000000e+01, 2294 iterations, 0.03 seconds (0.04 work units)

    Nodes    |    Current Node    |     Objective Bounds      |     Work
 Expl Unexpl |  Obj  Depth IntInf | Incumbent    BestBd   Gap | It/Node Time

     0     0   50.00000    0    6   28.15521   50.00000  77.6%     -    0s
H    0     0                      37.1945931   50.00000  34.4%     -    0s
H    0     0                      50.0000000   50.00000  0.00%     -    0s
     0     0   50.00000    0   14   50.00000   50.00000  0.00%     -    0s

Cutting planes:
  Gomory: 2
  MIR: 3
  Flow cover: 6

Explored 1 nodes (5023 simplex iterations) in 0.27 seconds (0.33 work units)
Thread count was 8 (of 8 available processors)

Solution count 5: 50 37.1946 28.1552 ... 20.4716

Optimal solution found (tolerance 1.00e-03)
Best objective 5.000000000000e+01, best bound 5.000000000000e+01, gap 0.0000%

User-callback calls 422, time in user-callback 0.00 sec
Gurobi Optimizer version 9.5.2 build v9.5.2rc0 (mac64[arm])
Thread count: 8 physical cores, 8 logical processors, using up to 8 threads
Optimize a model with 11508 rows, 5185 columns and 51090 nonzeros
Model fingerprint: 0x81d59db2
Variable types: 4465 continuous, 720 integer (720 binary)
Coefficient statistics:
  Matrix range     [3e-03, 8e+02]
  Objective range  [1e+00, 1e+00]
  Bounds range     [5e+01, 5e+01]
  RHS range        [1e+00, 1e+08]

MIP start from previous solve did not produce a new incumbent solution

Presolve removed 4075 rows and 2801 columns
Presolve time: 0.05s
Presolved: 7433 rows, 2384 columns, 31287 nonzeros
Variable types: 1681 continuous, 703 integer (700 binary)
Found heuristic solution: objective 20.4715696
Found heuristic solution: objective 21.1007760
Found heuristic solution: objective 28.1552056

Root relaxation: objective 5.000000e+01, 2958 iterations, 0.07 seconds (0.08 work units)

    Nodes    |    Current Node    |     Objective Bounds      |     Work
 Expl Unexpl |  Obj  Depth IntInf | Incumbent    BestBd   Gap | It/Node Time

     0     0   50.00000    0   24   28.15521   50.00000  77.6%     -    0s
H    0     0                      32.6900028   50.00000  53.0%     -    0s
     0     0   50.00000    0   36   32.69000   50.00000  53.0%     -    0s
     0     0   50.00000    0   36   32.69000   50.00000  53.0%     -    0s
H    0     0                      50.0000000   50.00000  0.00%     -    0s
     0     0   50.00000    0    4   50.00000   50.00000  0.00%     -    0s

Cutting planes:
  Gomory: 13
  Cover: 1
  Implied bound: 15
  Clique: 5
  MIR: 30
  Flow cover: 89
  Relax-and-lift: 5

Explored 1 nodes (8953 simplex iterations) in 0.58 seconds (0.71 work units)
Thread count was 8 (of 8 available processors)

Solution count 5: 50 32.69 28.1552 ... 20.4716

Optimal solution found (tolerance 1.00e-03)
Best objective 5.000000000000e+01, best bound 5.000000000000e+01, gap 0.0000%

User-callback calls 497, time in user-callback 0.00 sec
Gurobi Optimizer version 9.5.2 build v9.5.2rc0 (mac64[arm])
Thread count: 8 physical cores, 8 logical processors, using up to 8 threads
Optimize a model with 14205 rows, 6337 columns and 63432 nonzeros
Model fingerprint: 0x567add35
Variable types: 5545 continuous, 792 integer (792 binary)
Coefficient statistics:
  Matrix range     [3e-03, 8e+02]
  Objective range  [1e+00, 1e+00]
  Bounds range     [5e+01, 5e+01]
  RHS range        [1e+00, 1e+08]

MIP start from previous solve did not produce a new incumbent solution

Presolve removed 5088 rows and 3499 columns
Presolve time: 0.07s
Presolved: 9117 rows, 2838 columns, 38661 nonzeros
Variable types: 2065 continuous, 773 integer (770 binary)
Found heuristic solution: objective 20.4715696
Found heuristic solution: objective 22.9823364
Found heuristic solution: objective 28.1552056

Root relaxation: objective 3.874983e+01, 3816 iterations, 0.10 seconds (0.11 work units)

    Nodes    |    Current Node    |     Objective Bounds      |     Work
 Expl Unexpl |  Obj  Depth IntInf | Incumbent    BestBd   Gap | It/Node Time

     0     0   34.95009    0   23   28.15521   34.95009  24.1%     -    0s
     0     0   32.25996    0   17   28.15521   32.25996  14.6%     -    0s
H    0     0                      31.2500000   32.25996  3.23%     -    0s
     0     0   32.25996    0   17   31.25000   32.25996  3.23%     -    0s
     0     0   32.01827    0   20   31.25000   32.01827  2.46%     -    0s
     0     0   31.83893    0   23   31.25000   31.83893  1.88%     -    0s
     0     0   31.66429    0   23   31.25000   31.66429  1.33%     -    0s
     0     0   31.66429    0   23   31.25000   31.66429  1.33%     -    0s

Cutting planes:
  Cover: 1
  Implied bound: 13
  Clique: 5
  MIR: 34
  Flow cover: 60
  Relax-and-lift: 1

Explored 1 nodes (7825 simplex iterations) in 0.67 seconds (0.79 work units)
Thread count was 8 (of 8 available processors)

Solution count 4: 31.25 28.1552 22.9823 20.4716 

Optimal solution found (tolerance 1.00e-03)
Best objective 3.125000000000e+01, best bound 3.125000000000e+01, gap 0.0000%

User-callback calls 584, time in user-callback 0.00 sec
